NAME : A-n25-k9
CAPACITY : 1302
NODE_COORD_SECTION
1   404   189
2   89   410
3   257   468
4   242   271
5   208   202
6   131   50
7   413   57
8   424   364
9   320   175
10   422   327
11   239   87
12   177   372
13   208   173
14   178   377
15   235   117
16   329   190
17   290   233
18   369   496
19   176   165
20   139   475
21   99   330
22   270   437
23   375   218
24   218   131
25   236   416
DEMAND_SECTION
1   0
2   100
3   10
4   33
5   57
6   42
7   38
8   89
9   77
10   43
11   84
12   73
13   75
14   42
15   47
16   100
17   61
18   33
19   64
20   66
21   34
22   41
23   50
24   11
25   46
DEPOT_SECTION
    1
    -1
EOF